c ---- [ banner ] ------------------------------------------------------------
c
c Kissat SAT Solver
c 
c Copyright (c) 2021-2024 Armin Biere University of Freiburg
c Copyright (c) 2019-2021 Armin Biere Johannes Kepler University Linz
c 
c Version 4.0.1 43f02cf3e992cb44653b35e5cb26f93281552ae0
c gcc (Ubuntu 13.2.0-23ubuntu4) 13.2.0 -W -Wall -O3 -DNDEBUG
c Thu Sep 12 12:27:46 CEST 2024 Linux abryzen9 6.8.0-41-generic x86_64
c
c ---- [ parsing ] -----------------------------------------------------------
c
c opened and reading DIMACS file:
c
c   /data/artifact/AMulet2.0_artifact/exp4/cnf_resyn3_64/64_64_U1_DT_LF_Multgen_resyn3.cnf
c
c parsed 'p cnf 25921 115694' header
c closing input after reading 2291683 bytes (2 MB)
c finished parsing after 0.02 seconds
c
c ---- [ options ] -----------------------------------------------------------
c
c --stable=0                       (different from default '1')
c
c ---- [ solving ] -----------------------------------------------------------
c
c  seconds switched rate     size/glue tier1  binary           remaining
c         MB reductions conflicts size  tier2     irredundant
c          level restarts redundant glue  trail           variables
c
c *  0.02 10 0 0 0  0 0   0   0 0.0 0 0 0 0 0% 10766 104926 25918 100%
c (  0.03 11 0 0 0  0 0   0   0 0.0 0 0 0 0 0% 10766 104926 25918 100%
c .  0.03 11 0 0 0  0 0   0   0 0.0 0 0 0 0 0% 10762 104926 25918 100%
c f  0.17 15 0 0 0  0 0   0   0 0.0 0 0 0 0 0% 15763 96984 28731 111%
c e  0.29 25 0 0 0  0 0   0   0 0.0 0 0 0 0 0% 9631 105535 19531 75%
c )  0.29 25 0 0 0  0 0   0   0 0.0 0 0 0 0 0% 9631 105535 19531 75%
c {  0.30 25 0 0 0  0 0   0   0 0.0 0 0 2 6 0% 9631 105535 19531 75%
c -  0.49 25 190 0 1 260 37 1000 719 2.9 16 6 3 11 24% 9704 105535 19531 75%
c -  0.70 27 346 0 2 437 41 2000 1445 4.0 24 6 3 12 25% 9733 105535 19531 75%
c d  0.80 27 349 0 2 521 45 2504 1899 4.2 26 6 3 12 26% 9723 105535 19521 75%
c u  0.82 27 349 0 2 521 45 2504 1558 4.2 26 6 3 12 26% 9733 105535 19521 75%
c v  0.83 27 349 0 2 521 45 2504 1345 4.2 26 6 3 12 26% 9734 105535 19521 75%
c w  0.85 27 349 0 2 521 45 2504 1345 4.2 26 6 3 12 26% 9734 105535 19521 75%
c x  0.87 27 349 0 2 521 45 2504 1345 4.2 26 6 3 12 26% 9734 105384 19521 75%
c f  0.90 27 349 0 2 521 45 2504 1345 4.2 26 6 3 12 26% 10373 103893 20155 78%
c c  0.95 22 349 0 2 521 45 2504 1345 4.2 26 6 3 12 26% 10378 103877 20153 78%
c d  0.95 22 349 0 2 521 45 2504 1345 4.2 26 6 3 12 26% 10374 103877 20153 78%
c u  0.96 22 349 0 2 521 45 2504 1298 4.2 26 6 3 12 26% 10374 103877 20153 78%
c v  0.98 22 349 0 2 521 45 2504 1264 4.2 26 6 3 12 26% 10374 103877 20153 78%
c w  1.00 24 349 0 2 521 45 2504 1264 4.2 26 6 3 12 26% 10374 103877 20153 78%
c
c  seconds   switched   rate       size/glue tier1     binary           remaining
c         MB  reductions conflicts       size  tier2       irredundant
c           level restarts    redundant    glue    trail           variables
c
c x  1.02 24 349 0 2 521 45 2504 1264 4.2 26 6 3 12 26% 10374 103872 20153 78%
c =  1.09 24 349 0 2 521 45 2504 1264 4.2 26 6 3 12 26% 10386 103872 20147 78%
c d  1.09 24 349 0 2 521 45 2504 1264 4.2 26 6 3 12 26% 10368 103872 20147 78%
c f  1.12 24 349 0 2 521 45 2504 1264 4.2 26 6 3 12 26% 10474 103708 20201 78%
c -  1.37 25 392 0 3 699 50 3414 1815 4.7 31 7 3 13 27% 10490 103708 20201 78%
c -  1.71 25 374 0 4 937 47 5146 2903 4.9 34 7 3 13 27% 10526 103708 20201 78%
c -  2.08 25 401 0 5 1155 45 7146 4044 5.0 35 7 3 11 27% 10578 103708 20201 78%
c d  2.19 25 392 0 5 1211 45 7710 4572 4.9 35 7 3 11 28% 10532 103708 20176 78%
c u  2.22 25 392 0 5 1211 45 7710 3852 4.9 35 7 3 11 28% 10554 103708 20176 78%
c v  2.24 25 392 0 5 1211 45 7710 3525 4.9 35 7 3 11 28% 10554 103708 20176 78%
c w  2.28 25 392 0 5 1211 45 7710 3518 4.9 35 7 3 11 28% 10554 103708 20176 78%
c =  2.39 25 392 0 5 1211 45 7710 3518 4.9 35 7 3 11 28% 11100 103706 19903 77%
c d  2.40 25 392 0 5 1211 45 7710 3501 4.9 35 7 3 11 28% 10357 103706 19902 77%
c t  2.41 25 392 0 5 1211 45 7710 3501 4.9 35 7 3 11 28% 10334 103706 19902 77%
c f  2.46 25 392 0 5 1211 45 7710 3501 4.9 35 7 3 11 28% 13516 98928 21498 83%
c u  2.49 25 392 0 5 1211 45 7710 3352 4.9 35 7 3 11 28% 13517 98928 21498 83%
c v  2.51 25 392 0 5 1211 45 7710 3250 4.9 35 7 3 11 28% 13517 98928 21498 83%
c w  2.55 25 392 0 5 1211 45 7710 3243 4.9 35 7 3 11 28% 13517 98928 21498 83%
c x  2.58 25 392 0 5 1211 45 7710 3243 4.9 35 7 3 11 28% 13517 98889 21498 83%
c =  2.68 25 392 0 5 1211 45 7710 3243 4.9 35 7 3 11 28% 14141 98887 21186 82%
c
c  seconds   switched    rate       size/glue tier1     binary          remaining
c         MB  reductions  conflicts       size  tier2       irredundant
c           level  restarts    redundant    glue    trail          variables
c
c d  2.69 25 392 0 5 1211 45 7710 3243 4.9 35 7 3 11 28% 13278 98887 21186 82%
c t  2.70 25 392 0 5 1211 45 7710 3243 4.9 35 7 3 11 28% 13164 98887 21186 82%
c f  2.74 25 392 0 5 1211 45 7710 3243 4.9 35 7 3 11 28% 14952 96195 22084 85%
c -  3.08 25 387 0 6 1294 41 9382 4028 4.8 32 7 2 10 28% 14993 96195 22084 85%
c o  3.36 25 385 0 6 1346 41 10052 4574 4.9 34 7 2 10 28% 15035 96195 22084 85%
c -  3.90 25 366 0 7 1578 41 11833 5290 5.1 36 7 2 10 29% 15104 96195 22084 85%
c s  4.11 25 357 0 7 1660 41 12508 5857 5.0 36 7 2 10 29% 15131 95125 22084 85%
c e  4.19 25 357 0 7 1660 41 12508 5857 5.0 36 7 2 10 29% 14379 95453 21557 83%
c s  4.20 26 357 0 7 1660 41 12508 5857 5.0 36 7 2 10 29% 14380 95077 21557 83%
c e  4.20 26 357 0 7 1660 41 12508 5857 5.0 36 7 2 10 29% 14320 95121 21524 83%
c ^  4.20 26 357 0 7 1660 41 12508 5857 5.0 36 7 2 10 29% 14320 95121 21524 83%
c -  4.70 26 354 0 8 1882 40 14478 6260 4.9 36 7 2 10 29% 14365 95121 21524 83%
c c  5.47 26 352 0 8 2014 41 15789 7368 4.9 38 8 2 10 29% 14439 94976 21488 83%
c d  5.48 26 352 0 8 2014 41 15789 7330 4.9 38 8 2 10 29% 13814 94976 21160 82%
c u  5.53 26 352 0 8 2014 41 15789 6372 4.9 38 8 2 10 29% 13825 94976 21160 82%
c v  5.60 26 352 0 8 2014 41 15789 5408 4.9 38 8 2 10 29% 13826 94976 21160 82%
c w  5.85 26 352 0 8 2014 41 15789 5403 4.9 38 8 2 10 29% 13826 94976 21160 82%
c =  6.11 26 352 0 8 2014 41 15789 5403 4.9 38 8 2 10 29% 14024 94974 21061 81%
c d  6.12 26 352 0 8 2014 41 15789 5358 4.9 38 8 2 10 29% 13793 94974 21058 81%
c t  6.14 26 352 0 8 2014 41 15789 5358 4.9 38 8 2 10 29% 13737 94974 21058 81%
c
c  seconds   switched    rate        size/glue tier1     binary          remaining
c         MB  reductions   conflicts       size  tier2       irredundant
c           level  restarts     redundant    glue    trail          variables
c
c f  6.19 26 352 0 8 2014 41 15789 5358 4.9 38 8 2 10 29% 13757 94918 21070 81%
c u  6.25 26 352 0 8 2014 41 15789 5147 4.9 38 8 2 10 29% 13758 94918 21070 81%
c v  6.30 26 352 0 8 2014 41 15789 5048 4.9 38 8 2 10 29% 13758 94918 21070 81%
c w  6.60 26 352 0 8 2014 41 15789 5032 4.9 38 8 2 10 29% 13758 94918 21070 81%
c =  6.88 26 352 0 8 2014 41 15789 5032 4.9 38 8 2 10 29% 17800 94918 19049 73%
c d  6.89 26 352 0 8 2014 41 15789 4919 4.9 38 8 2 10 29% 12121 94918 19049 73%
c f  6.97 26 352 0 8 2014 41 15789 4919 4.9 38 8 2 10 29% 12125 94910 19051 73%
c -  7.30 26 354 0 9 2094 39 17308 5526 4.8 37 8 2 10 29% 12166 94910 19051 73%
c o  7.79 26 348 0 9 2233 37 20097 7688 4.7 35 8 2 10 28% 12238 94910 19051 73%
c -  8.00 26 347 0 10 2276 37 20308 7029 4.7 36 8 2 9 28% 12238 94910 19051 73%
c -  9.33 26 344 0 11 2567 37 23470 8684 4.7 37 8 2 9 29% 12264 94910 19051 73%
c s  9.79 26 338 0 11 2722 36 25011 9943 4.7 37 8 2 9 29% 12320 89170 19051 73%
c e  9.91 26 338 0 11 2722 36 25011 9943 4.7 37 8 2 9 29% 9541 93192 17520 68%
c s  9.92 26 338 0 11 2722 36 25011 9943 4.7 37 8 2 9 29% 9546 92835 17520 68%
c e  9.94 26 338 0 11 2722 36 25011 9943 4.7 37 8 2 9 29% 9532 92852 17510 68%
c ^  9.94 26 338 0 11 2722 36 25011 9943 4.7 37 8 2 9 29% 9532 92852 17510 68%
c - 10.48 26 329 0 12 2894 35 26786 8852 4.7 37 8 2 9 29% 9578 92852 17510 68%
c c 10.57 26 329 0 12 2895 35 26917 8968 4.7 37 8 2 9 29% 9644 92406 17454 67%
c d 10.57 26 329 0 12 2895 35 26917 8843 4.7 37 8 2 9 29% 9287 92406 17307 67%
c u 10.62 26 329 0 12 2895 35 26917 7474 4.7 37 8 2 9 29% 9298 92406 17307 67%
c
c  seconds   switched     rate        size/glue tier1    binary         remaining
c         MB   reductions   conflicts       size  tier2     irredundant
c           level   restarts     redundant    glue   trail         variables
c
c v 10.67 26 329 0 12 2895 35 26917 6602 4.7 37 8 2 9 29% 9302 92406 17307 67%
c w 10.69 26 329 0 12 2895 35 26917 6602 4.7 37 8 2 9 29% 9302 92406 17307 67%
c x 10.79 26 329 0 12 2895 35 26917 6601 4.7 37 8 2 9 29% 9307 91100 17307 67%
c = 11.08 26 329 0 12 2895 35 26917 6601 4.7 37 8 2 9 29% 13293 91100 15314 59%
c d 11.09 26 329 0 12 2895 35 26917 6518 4.7 37 8 2 9 29% 9235 91100 15312 59%
c t 11.11 26 329 0 12 2895 35 26917 6518 4.7 37 8 2 9 29% 9197 91100 15312 59%
c f 11.17 26 329 0 12 2895 35 26917 6518 4.7 37 8 2 9 29% 9202 91083 15315 59%
c c 11.24 26 329 0 12 2895 35 26917 6514 4.7 37 8 2 9 29% 9235 90966 15298 59%
c d 11.25 26 329 0 12 2895 35 26917 6514 4.7 37 8 2 9 29% 9201 90966 15298 59%
c u 11.29 26 329 0 12 2895 35 26917 6066 4.7 37 8 2 9 29% 9202 90966 15298 59%
c v 11.31 26 329 0 12 2895 35 26917 5961 4.7 37 8 2 9 29% 9202 90966 15298 59%
c w 11.33 26 329 0 12 2895 35 26917 5959 4.7 37 8 2 9 29% 9202 90966 15298 59%
c = 11.62 26 329 0 12 2895 35 26917 5959 4.7 37 8 2 9 29% 12220 90924 13786 53%
c d 11.63 26 329 0 12 2895 35 26917 5811 4.7 37 8 2 9 29% 9137 90924 13786 53%
c t 11.65 26 329 0 12 2895 35 26917 5811 4.7 37 8 2 9 29% 9054 90924 13786 53%
c f 11.69 26 329 0 12 2895 35 26917 5811 4.7 37 8 2 9 29% 9059 90880 13796 53%
c - 12.31 26 316 0 13 3089 33 30253 7736 4.5 35 8 2 9 29% 9104 90880 13796 53%
c - 13.25 26 303 0 14 3437 33 33858 9745 4.3 34 8 2 9 29% 9128 90879 13796 53%
c - 14.08 26 296 0 15 3734 31 37601 11288 4.2 34 8 2 8 29% 9183 90875 13796 53%
c o 14.54 26 292 0 15 3912 31 40126 13388 4.1 33 8 2 8 29% 9218 90874 13796 53%
c
c  seconds   switched     rate         size/glue tier1    binary         remaining
c         MB   reductions   conflicts        size  tier2     irredundant
c           level   restarts      redundant    glue   trail         variables
c
c c 14.77 26 288 0 15 3973 30 41243 14407 4.1 32 8 2 8 29% 9315 90216 13696 53%
c d 14.78 26 288 0 15 3973 30 41243 14006 4.1 32 8 2 8 29% 9115 90216 13696 53%
c u 14.85 26 288 0 15 3973 30 41243 11960 4.1 32 8 2 8 29% 9146 90216 13696 53%
c v 14.93 26 288 0 15 3973 30 41243 11079 4.1 32 8 2 8 29% 9146 90216 13696 53%
c w 14.99 26 288 0 15 3973 30 41243 11078 4.1 32 8 2 8 29% 9146 90216 13696 53%
c x 15.06 26 288 0 15 3973 30 41243 11078 4.1 32 8 2 8 29% 9148 80770 13696 53%
c = 15.33 26 288 0 15 3973 30 41243 11078 4.1 32 8 2 8 29% 9154 80770 13693 53%
c d 15.34 26 288 0 15 3973 30 41243 11051 4.1 32 8 2 8 29% 9126 80770 13683 53%
c t 15.36 26 288 0 15 3973 30 41243 11051 4.1 32 8 2 8 29% 9123 80770 13683 53%
c f 15.38 26 288 0 15 3973 30 41243 11051 4.1 32 8 2 8 29% 9125 80764 13684 53%
c c 15.44 26 288 0 15 3973 30 41243 11030 4.1 32 8 2 8 29% 9134 80720 13679 53%
c d 15.45 26 288 0 15 3973 30 41243 11030 4.1 32 8 2 8 29% 9124 80720 13679 53%
c u 15.51 26 288 0 15 3973 30 41243 10291 4.1 32 8 2 8 29% 9130 80720 13679 53%
c v 15.58 26 288 0 15 3973 30 41243 9530 4.1 32 8 2 8 29% 9136 80720 13679 53%
c w 15.67 26 288 0 15 3973 30 41243 9521 4.1 32 8 2 8 29% 9136 80720 13679 53%
c x 15.75 26 288 0 15 3973 30 41243 9521 4.1 32 8 2 8 29% 9136 69641 13679 53%
c = 16.06 26 288 0 15 3973 30 41243 9521 4.1 32 8 2 8 29% 9336 69641 13579 52%
c d 16.06 26 288 0 15 3973 30 41243 9512 4.1 32 8 2 8 29% 9125 69641 13574 52%
c t 16.08 26 288 0 15 3973 30 41243 9512 4.1 32 8 2 8 29% 9119 69641 13574 52%
c - 16.12 26 289 0 16 3974 30 41473 8373 4.1 32 8 2 8 29% 9124 69641 13574 52%
c
c  seconds   switched     rate         size/glue tier1    binary         remaining
c         MB   reductions   conflicts        size  tier2     irredundant
c           level   restarts      redundant    glue   trail         variables
c
c - 16.97 26 282 0 17 4365 30 45474 10370 4.1 32 8 2 8 29% 9186 69641 13574 52%
c - 17.69 26 272 0 18 4706 29 49597 12273 4.0 32 8 2 8 29% 9259 69637 13574 52%
c s 18.31 26 268 0 18 4945 29 52112 14574 3.9 32 8 2 8 29% 9280 66694 13574 52%
c e 18.40 26 268 0 18 4945 29 52112 14574 3.9 32 8 2 8 29% 8860 67215 13183 51%
c s 18.40 26 268 0 18 4945 29 52112 14574 3.9 32 8 2 8 29% 8860 66816 13183 51%
c e 18.41 26 268 0 18 4945 29 52112 14574 3.9 32 8 2 8 29% 8850 66833 13174 51%
c ^ 18.41 26 268 0 18 4945 29 52112 14574 3.9 32 8 2 8 29% 8850 66833 13174 51%
c - 18.93 26 263 0 19 5165 29 53840 13207 3.9 32 8 2 8 30% 8856 66833 13174 51%
c - 19.73 26 253 0 20 5470 28 58199 14824 3.8 31 8 2 7 29% 8910 66833 13174 51%
c d 19.99 26 252 0 20 5572 28 58904 15440 3.8 32 8 2 7 30% 8860 66831 13149 51%
c u 20.07 26 252 0 20 5572 28 58904 12818 3.8 32 8 2 7 30% 8910 66831 13148 51%
c v 20.17 26 252 0 20 5572 28 58904 11149 3.8 32 8 2 7 30% 8919 66831 13148 51%
c w 20.24 26 252 0 20 5572 28 58904 11149 3.8 32 8 2 7 30% 8919 66831 13148 51%
c x 20.33 26 252 0 20 5572 28 58904 11148 3.8 32 8 2 7 30% 8923 66618 13148 51%
c = 20.71 26 252 0 20 5572 28 58904 11148 3.8 32 8 2 7 30% 9427 66618 12896 50%
c d 20.72 26 252 0 20 5572 28 58904 10946 3.8 32 8 2 7 30% 8855 66618 12883 50%
c t 20.74 26 252 0 20 5572 28 58904 10946 3.8 32 8 2 7 30% 8807 66618 12883 50%
c f 20.77 26 252 0 20 5572 28 58904 10946 3.8 32 8 2 7 30% 8823 66513 12899 50%
c c 20.82 26 252 0 20 5572 28 58904 10910 3.8 32 8 2 7 30% 8849 66351 12879 50%
c d 20.83 26 252 0 20 5572 28 58904 10910 3.8 32 8 2 7 30% 8809 66351 12879 50%
c
c  seconds   switched     rate         size/glue tier1    binary         remaining
c         MB   reductions   conflicts        size  tier2     irredundant
c           level   restarts      redundant    glue   trail         variables
c
c u 20.89 26 252 0 20 5572 28 58904 10115 3.8 32 8 2 7 30% 8819 66351 12878 50%
c v 20.94 26 252 0 20 5572 28 58904 9868 3.8 32 8 2 7 30% 8821 66351 12878 50%
c w 21.06 26 252 0 20 5572 28 58904 9836 3.8 32 8 2 7 30% 8821 66351 12878 50%
c = 21.18 26 252 0 20 5572 28 58904 9836 3.8 32 8 2 7 30% 8884 66308 12843 50%
c d 21.19 26 252 0 20 5572 28 58904 9753 3.8 32 8 2 7 30% 8796 66308 12840 50%
c t 21.20 26 252 0 20 5572 28 58904 9753 3.8 32 8 2 7 30% 8787 66308 12840 50%
c f 21.22 26 252 0 20 5572 28 58904 9753 3.8 32 8 2 7 30% 8789 66301 12841 50%
c i 21.22 26 252 0 20 5572 28 58904 9753 3.8 32 8 2 7 30% 8789 66301 12841 50%
c i 21.62 26 247 0 20 5751 28 61010 11621 3.8 31 8 2 7 30% 8821 66301 12840 50%
c i 21.62 26 247 0 20 5755 28 61039 11640 3.8 31 8 2 7 30% 8825 66301 12839 50%
c - 22.08 26 244 0 21 5987 28 62671 11377 3.8 32 8 2 7 30% 8821 66301 12839 50%
c i 22.24 26 244 0 21 6048 28 63291 11945 3.8 32 8 2 7 30% 8826 66301 12838 50%
c - 22.99 26 237 0 22 6449 27 67254 13631 3.7 31 8 2 7 30% 8869 66300 12838 50%
c i 23.22 26 235 0 22 6640 27 68773 15060 3.7 31 8 2 7 30% 8879 66299 12837 50%
c o 23.35 26 234 0 22 6731 27 70161 16278 3.7 31 8 2 7 30% 8904 66299 12837 50%
c i 23.54 26 233 0 22 6895 27 71050 17100 3.7 31 8 2 7 30% 8912 66298 12834 50%
c i 23.59 26 232 0 22 6943 27 71619 17595 3.7 31 8 2 7 30% 8918 66297 12833 50%
c - 23.64 26 232 0 23 6969 27 71944 15392 3.7 31 8 2 7 30% 8909 66297 12833 50%
c i 23.72 26 231 0 23 7025 27 72850 16160 3.7 31 8 2 7 30% 8934 66297 12832 50%
c i 23.82 26 230 0 23 7108 27 73481 16749 3.7 31 8 2 7 30% 8945 66297 12831 50%
c
c  seconds   switched     rate         size/glue tier1    binary         remaining
c         MB   reductions   conflicts        size  tier2     irredundant
c           level   restarts      redundant    glue   trail         variables
c
c i 23.82 26 230 0 23 7108 27 73504 16756 3.7 31 8 2 7 30% 8949 66297 12830 49%
c i 23.82 26 230 0 23 7108 27 73518 16759 3.7 31 8 2 7 30% 8951 66297 12829 49%
c i 23.89 26 230 0 23 7152 27 74766 17723 3.7 31 8 2 7 30% 8995 66297 12828 49%
c i 24.04 26 229 0 23 7276 27 75789 18642 3.7 31 8 2 7 30% 9006 66297 12827 49%
c - 24.10 26 228 0 24 7323 26 76740 16650 3.6 31 8 2 7 30% 9003 66297 12827 49%
c c 24.44 26 224 0 24 7531 26 80013 19578 3.6 30 8 2 7 30% 9099 65286 12686 49%
c d 24.44 26 224 0 24 7531 26 80013 18881 3.6 30 8 2 7 30% 8849 65249 12685 49%
c d 24.45 26 224 0 24 7531 26 80013 18861 3.6 30 8 2 7 30% 8814 65242 12668 49%
c u 24.50 26 224 0 24 7531 26 80013 15729 3.6 30 8 2 7 30% 8839 65242 12668 49%
c v 24.56 26 224 0 24 7531 26 80013 13960 3.6 30 8 2 7 30% 8844 65242 12668 49%
c w 24.59 26 224 0 24 7531 26 80013 13959 3.6 30 8 2 7 30% 8844 65242 12668 49%
c x 24.65 26 224 0 24 7531 26 80013 13949 3.6 30 8 2 7 30% 8846 62699 12668 49%
c = 24.85 26 224 0 24 7531 26 80013 13949 3.6 30 8 2 7 30% 9287 62321 12405 48%
c } 24.85 26 224 0 24 7531 26 80013 13949 3.6 30 8 2 7 30% 9287 62321 12617 49%
c 0 24.85 26 224 0 24 7531 26 80013 13949 3.6 30 8 2 7 30% 9287 62321 12617 49%
c
c ---- [ result ] ------------------------------------------------------------
c
s UNSATISFIABLE
c
c ---- [ profiling ] ---------------------------------------------------------
c
c          17.39   70.00 %  search
c          17.39   70.00 %  focused
c           7.15   28.79 %  simplify
c           6.87   27.64 %  probe
c           2.73   10.97 %  sweep
c           2.63   10.58 %  vivify
c           0.50    2.02 %  factor
c           0.48    1.95 %  congruence
c           0.42    1.70 %  eliminate
c           0.37    1.49 %  substitute
c           0.26    1.04 %  preprocess
c           0.13    0.54 %  reduce
c           0.12    0.47 %  fastel
c           0.11    0.43 %  transitive
c           0.08    0.31 %  subsume
c           0.05    0.20 %  backbone
c           0.02    0.09 %  lucky
c           0.02    0.07 %  parse
c =============================================
c          24.85  100.00 %  total
c
c ---- [ statistics ] --------------------------------------------------------
c
c chronological:                         4000                5 %  conflicts
c conflicts:                            80013             3220.24 per second
c congruent:                              377                1 %  variables
c decisions:                          2047706               25.59 per conflict
c eliminated:                           11701               45 %  variables
c factored:                              6040               23 %  variables
c fast_eliminated:                       9200               79 %  eliminated
c fast_strengthened:                      186               38 %  per strengthened
c fast_subsumed:                          157                1 %  per subsumed
c iterations:                              12                0 %  variables
c propagations:                      87953305          3539810    per second
c reductions:                              24             3334    interval
c reordered:                                4            20003    interval
c restarts:                              7531               11    interval
c strengthened:                           484                0 %  checks
c substituted:                           7565               29 %  variables
c subsumed:                             11036                1 %  checks
c switched:                                 0                0    interval
c vivified:                             52885               17 %  checks
c
c ---- [ glue usage ] --------------------------------------------------------
c
c focused glue 2   used 36007 clauses 25.36% accumulated 70.54% tier1
c focused glue 3   used 11317 clauses  7.97% accumulated 78.51%
c focused glue 4-5 used 11591 clauses  8.17% accumulated 86.68%
c focused glue 6   used  3281 clauses  2.31% accumulated 88.99%
c focused glue 7   used  2444 clauses  1.72% accumulated 90.71% tier2
c
c ---- [ resources ] ---------------------------------------------------------
c
c maximum-resident-set-size:         28184576 bytes         27 MB
c process-time:                            25s              24.85 seconds
c
c ---- [ shutting down ] -----------------------------------------------------
c
c exit 20
